benchmarks/VRPTW/TSPTW/solution/n60w80.001.txt.solution
1 20 13 52 9 5 42 56 59 6 24 23 19 10 22 4 25 30 57 8 55 18 21 27 60 36 34 45 46 47 11 58 3 7 39 43 54 50 48 41 2 17 31 53 32 33 51 44 12 37 29 35 38 26 16 14 28 49 61 40 15 
458
